p cnf 300 1018
c p weight 120 -1 0
c p weight -120 1 0
c p weight 122 6.12323399573676603586882014729198302312846062338790031898128063403419218957424163818359375E-17 0
c p weight -122 1 0
c p weight 123 1 0
c p weight -123 1 0
c p weight 124 -1 0
c p weight -124 1 0
c p weight 126 -1 0
c p weight -126 1 0
c p weight 129 -1 0
c p weight -129 1 0
c p weight 132 -1 0
c p weight -132 1 0
c p weight 135 -1 0
c p weight -135 1 0
c p weight 138 -1 0
c p weight -138 1 0
c p weight 141 -1 0
c p weight -141 1 0
c p weight 144 -1 0
c p weight -144 1 0
c p weight 147 -1 0
c p weight -147 1 0
c p weight 150 -1 0
c p weight -150 1 0
c p weight 153 -1 0
c p weight -153 1 0
c p weight 156 -1 0
c p weight -156 1 0
c p weight 159 -1 0
c p weight -159 1 0
c p weight 162 -1 0
c p weight -162 1 0
c p weight 165 -1 0
c p weight -165 1 0
c p weight 168 -1 0
c p weight -168 1 0
c p weight 171 -1 0
c p weight -171 1 0
c p weight 174 -1 0
c p weight -174 1 0
c p weight 177 -1 0
c p weight -177 1 0
c p weight 180 -1 0
c p weight -180 1 0
c p weight 183 -1 0
c p weight -183 1 0
c p weight 186 -1 0
c p weight -186 1 0
c p weight 189 -1 0
c p weight -189 1 0
c p weight 192 -1 0
c p weight -192 1 0
c p weight 195 -1 0
c p weight -195 1 0
c p weight 198 -1 0
c p weight -198 1 0
c p weight 201 -1 0
c p weight -201 1 0
c p weight 204 -1 0
c p weight -204 1 0
c p weight 207 -1 0
c p weight -207 1 0
c p weight 210 -1 0
c p weight -210 1 0
c p weight 213 -1 0
c p weight -213 1 0
c p weight 216 -1 0
c p weight -216 1 0
c p weight 219 -1 0
c p weight -219 1 0
c p weight 222 -1 0
c p weight -222 1 0
c p weight 225 -1 0
c p weight -225 1 0
c p weight 228 -1 0
c p weight -228 1 0
c p weight 231 -1 0
c p weight -231 1 0
c p weight 234 -1 0
c p weight -234 1 0
c p weight 237 -1 0
c p weight -237 1 0
c p weight 240 -1 0
c p weight -240 1 0
c p weight 243 -1 0
c p weight -243 1 0
c p weight 246 -1 0
c p weight -246 1 0
c p weight 249 -1 0
c p weight -249 1 0
c p weight 252 -1 0
c p weight -252 1 0
c p weight 255 -1 0
c p weight -255 1 0
c p weight 258 -1 0
c p weight -258 1 0
c p weight 261 -1 0
c p weight -261 1 0
c p weight 264 -1 0
c p weight -264 1 0
c p weight 267 -1 0
c p weight -267 1 0
c p weight 270 -1 0
c p weight -270 1 0
c p weight 273 -1 0
c p weight -273 1 0
c p weight 276 -1 0
c p weight -276 1 0
c p weight 279 -1 0
c p weight -279 1 0
c p weight 282 -1 0
c p weight -282 1 0
c p weight 285 -1 0
c p weight -285 1 0
c p weight 288 -1 0
c p weight -288 1 0
c p weight 291 -1 0
c p weight -291 1 0
c p weight 294 -1 0
c p weight -294 1 0
c p weight 297 -1 0
c p weight -297 1 0
c p weight 300 -1 0
c p weight -300 1 0
-117 0
-115 0
-113 0
-111 0
-109 0
-107 0
-105 0
-103 0
-101 0
-99 0
-97 0
-95 0
-93 0
-91 0
-89 0
-87 0
-85 0
-83 0
-81 0
-79 0
-77 0
-75 0
-73 0
-71 0
-69 0
-67 0
-65 0
-63 0
-61 0
-59 0
-57 0
-55 0
-53 0
-51 0
-49 0
-47 0
-45 0
-43 0
-41 0
-39 0
-37 0
-35 0
-33 0
-31 0
-29 0
-27 0
-25 0
-23 0
-21 0
-19 0
-17 0
-15 0
-13 0
-11 0
-9 0
-7 0
-5 0
-3 0
-1 0
119 117 -118 0
119 -117 118 0
-119 117 118 0
-119 -117 -118 0
-120 117 0
-120 118 0
120 -117 -118 0
121 -117 119 0
-121 117 119 0
-122 119 0
121 -122 -117 0
-121 -122 117 0
121 122 117 -119 0
-121 122 -117 -119 0
-123 119 0
121 -123 117 0
-121 -123 -117 0
121 123 -117 -119 0
-121 123 117 -119 0
-124 121 0
-124 119 0
-124 -117 0
124 -121 117 -119 0
125 121 -119 0
125 -121 119 0
-125 121 119 0
-125 -121 -119 0
-126 121 0
-126 119 0
126 -121 -119 0
127 121 -115 0
127 -121 115 0
-127 121 115 0
-127 -121 -115 0
128 125 -116 0
128 -125 116 0
-128 125 116 0
-128 -125 -116 0
-129 121 0
-129 116 0
-129 115 -125 0
-129 -115 125 0
129 -121 115 125 -116 0
129 -121 -115 -125 -116 0
130 127 -113 0
130 -127 113 0
-130 127 113 0
-130 -127 -113 0
131 116 -114 0
131 -116 114 0
-131 116 114 0
-131 -116 -114 0
-132 127 0
-132 114 0
-132 113 -116 0
-132 -113 116 0
132 -127 113 116 -114 0
132 -127 -113 -116 -114 0
133 130 -111 0
133 -130 111 0
-133 130 111 0
-133 -130 -111 0
134 114 -112 0
134 -114 112 0
-134 114 112 0
-134 -114 -112 0
-135 130 0
-135 112 0
-135 111 -114 0
-135 -111 114 0
135 -130 111 114 -112 0
135 -130 -111 -114 -112 0
136 133 -109 0
136 -133 109 0
-136 133 109 0
-136 -133 -109 0
137 112 -110 0
137 -112 110 0
-137 112 110 0
-137 -112 -110 0
-138 133 0
-138 110 0
-138 109 -112 0
-138 -109 112 0
138 -133 109 112 -110 0
138 -133 -109 -112 -110 0
139 136 -107 0
139 -136 107 0
-139 136 107 0
-139 -136 -107 0
140 110 -108 0
140 -110 108 0
-140 110 108 0
-140 -110 -108 0
-141 136 0
-141 108 0
-141 107 -110 0
-141 -107 110 0
141 -136 107 110 -108 0
141 -136 -107 -110 -108 0
142 139 -105 0
142 -139 105 0
-142 139 105 0
-142 -139 -105 0
143 108 -106 0
143 -108 106 0
-143 108 106 0
-143 -108 -106 0
-144 139 0
-144 106 0
-144 105 -108 0
-144 -105 108 0
144 -139 105 108 -106 0
144 -139 -105 -108 -106 0
145 142 -103 0
145 -142 103 0
-145 142 103 0
-145 -142 -103 0
146 106 -104 0
146 -106 104 0
-146 106 104 0
-146 -106 -104 0
-147 142 0
-147 104 0
-147 103 -106 0
-147 -103 106 0
147 -142 103 106 -104 0
147 -142 -103 -106 -104 0
148 145 -101 0
148 -145 101 0
-148 145 101 0
-148 -145 -101 0
149 104 -102 0
149 -104 102 0
-149 104 102 0
-149 -104 -102 0
-150 145 0
-150 102 0
-150 101 -104 0
-150 -101 104 0
150 -145 101 104 -102 0
150 -145 -101 -104 -102 0
151 148 -99 0
151 -148 99 0
-151 148 99 0
-151 -148 -99 0
152 102 -100 0
152 -102 100 0
-152 102 100 0
-152 -102 -100 0
-153 148 0
-153 100 0
-153 99 -102 0
-153 -99 102 0
153 -148 99 102 -100 0
153 -148 -99 -102 -100 0
154 151 -97 0
154 -151 97 0
-154 151 97 0
-154 -151 -97 0
155 100 -98 0
155 -100 98 0
-155 100 98 0
-155 -100 -98 0
-156 151 0
-156 98 0
-156 97 -100 0
-156 -97 100 0
156 -151 97 100 -98 0
156 -151 -97 -100 -98 0
157 154 -95 0
157 -154 95 0
-157 154 95 0
-157 -154 -95 0
158 98 -96 0
158 -98 96 0
-158 98 96 0
-158 -98 -96 0
-159 154 0
-159 96 0
-159 95 -98 0
-159 -95 98 0
159 -154 95 98 -96 0
159 -154 -95 -98 -96 0
160 157 -93 0
160 -157 93 0
-160 157 93 0
-160 -157 -93 0
161 96 -94 0
161 -96 94 0
-161 96 94 0
-161 -96 -94 0
-162 157 0
-162 94 0
-162 93 -96 0
-162 -93 96 0
162 -157 93 96 -94 0
162 -157 -93 -96 -94 0
163 160 -91 0
163 -160 91 0
-163 160 91 0
-163 -160 -91 0
164 94 -92 0
164 -94 92 0
-164 94 92 0
-164 -94 -92 0
-165 160 0
-165 92 0
-165 91 -94 0
-165 -91 94 0
165 -160 91 94 -92 0
165 -160 -91 -94 -92 0
166 163 -89 0
166 -163 89 0
-166 163 89 0
-166 -163 -89 0
167 92 -90 0
167 -92 90 0
-167 92 90 0
-167 -92 -90 0
-168 163 0
-168 90 0
-168 89 -92 0
-168 -89 92 0
168 -163 89 92 -90 0
168 -163 -89 -92 -90 0
169 166 -87 0
169 -166 87 0
-169 166 87 0
-169 -166 -87 0
170 90 -88 0
170 -90 88 0
-170 90 88 0
-170 -90 -88 0
-171 166 0
-171 88 0
-171 87 -90 0
-171 -87 90 0
171 -166 87 90 -88 0
171 -166 -87 -90 -88 0
172 169 -85 0
172 -169 85 0
-172 169 85 0
-172 -169 -85 0
173 88 -86 0
173 -88 86 0
-173 88 86 0
-173 -88 -86 0
-174 169 0
-174 86 0
-174 85 -88 0
-174 -85 88 0
174 -169 85 88 -86 0
174 -169 -85 -88 -86 0
175 172 -83 0
175 -172 83 0
-175 172 83 0
-175 -172 -83 0
176 86 -84 0
176 -86 84 0
-176 86 84 0
-176 -86 -84 0
-177 172 0
-177 84 0
-177 83 -86 0
-177 -83 86 0
177 -172 83 86 -84 0
177 -172 -83 -86 -84 0
178 175 -81 0
178 -175 81 0
-178 175 81 0
-178 -175 -81 0
179 84 -82 0
179 -84 82 0
-179 84 82 0
-179 -84 -82 0
-180 175 0
-180 82 0
-180 81 -84 0
-180 -81 84 0
180 -175 81 84 -82 0
180 -175 -81 -84 -82 0
181 178 -79 0
181 -178 79 0
-181 178 79 0
-181 -178 -79 0
182 82 -80 0
182 -82 80 0
-182 82 80 0
-182 -82 -80 0
-183 178 0
-183 80 0
-183 79 -82 0
-183 -79 82 0
183 -178 79 82 -80 0
183 -178 -79 -82 -80 0
184 181 -77 0
184 -181 77 0
-184 181 77 0
-184 -181 -77 0
185 80 -78 0
185 -80 78 0
-185 80 78 0
-185 -80 -78 0
-186 181 0
-186 78 0
-186 77 -80 0
-186 -77 80 0
186 -181 77 80 -78 0
186 -181 -77 -80 -78 0
187 184 -75 0
187 -184 75 0
-187 184 75 0
-187 -184 -75 0
188 78 -76 0
188 -78 76 0
-188 78 76 0
-188 -78 -76 0
-189 184 0
-189 76 0
-189 75 -78 0
-189 -75 78 0
189 -184 75 78 -76 0
189 -184 -75 -78 -76 0
190 187 -73 0
190 -187 73 0
-190 187 73 0
-190 -187 -73 0
191 76 -74 0
191 -76 74 0
-191 76 74 0
-191 -76 -74 0
-192 187 0
-192 74 0
-192 73 -76 0
-192 -73 76 0
192 -187 73 76 -74 0
192 -187 -73 -76 -74 0
193 190 -71 0
193 -190 71 0
-193 190 71 0
-193 -190 -71 0
194 74 -72 0
194 -74 72 0
-194 74 72 0
-194 -74 -72 0
-195 190 0
-195 72 0
-195 71 -74 0
-195 -71 74 0
195 -190 71 74 -72 0
195 -190 -71 -74 -72 0
196 193 -69 0
196 -193 69 0
-196 193 69 0
-196 -193 -69 0
197 72 -70 0
197 -72 70 0
-197 72 70 0
-197 -72 -70 0
-198 193 0
-198 70 0
-198 69 -72 0
-198 -69 72 0
198 -193 69 72 -70 0
198 -193 -69 -72 -70 0
199 196 -67 0
199 -196 67 0
-199 196 67 0
-199 -196 -67 0
200 70 -68 0
200 -70 68 0
-200 70 68 0
-200 -70 -68 0
-201 196 0
-201 68 0
-201 67 -70 0
-201 -67 70 0
201 -196 67 70 -68 0
201 -196 -67 -70 -68 0
202 199 -65 0
202 -199 65 0
-202 199 65 0
-202 -199 -65 0
203 68 -66 0
203 -68 66 0
-203 68 66 0
-203 -68 -66 0
-204 199 0
-204 66 0
-204 65 -68 0
-204 -65 68 0
204 -199 65 68 -66 0
204 -199 -65 -68 -66 0
205 202 -63 0
205 -202 63 0
-205 202 63 0
-205 -202 -63 0
206 66 -64 0
206 -66 64 0
-206 66 64 0
-206 -66 -64 0
-207 202 0
-207 64 0
-207 63 -66 0
-207 -63 66 0
207 -202 63 66 -64 0
207 -202 -63 -66 -64 0
208 205 -61 0
208 -205 61 0
-208 205 61 0
-208 -205 -61 0
209 64 -62 0
209 -64 62 0
-209 64 62 0
-209 -64 -62 0
-210 205 0
-210 62 0
-210 61 -64 0
-210 -61 64 0
210 -205 61 64 -62 0
210 -205 -61 -64 -62 0
211 208 -59 0
211 -208 59 0
-211 208 59 0
-211 -208 -59 0
212 62 -60 0
212 -62 60 0
-212 62 60 0
-212 -62 -60 0
-213 208 0
-213 60 0
-213 59 -62 0
-213 -59 62 0
213 -208 59 62 -60 0
213 -208 -59 -62 -60 0
214 211 -57 0
214 -211 57 0
-214 211 57 0
-214 -211 -57 0
215 60 -58 0
215 -60 58 0
-215 60 58 0
-215 -60 -58 0
-216 211 0
-216 58 0
-216 57 -60 0
-216 -57 60 0
216 -211 57 60 -58 0
216 -211 -57 -60 -58 0
217 214 -55 0
217 -214 55 0
-217 214 55 0
-217 -214 -55 0
218 58 -56 0
218 -58 56 0
-218 58 56 0
-218 -58 -56 0
-219 214 0
-219 56 0
-219 55 -58 0
-219 -55 58 0
219 -214 55 58 -56 0
219 -214 -55 -58 -56 0
220 217 -53 0
220 -217 53 0
-220 217 53 0
-220 -217 -53 0
221 56 -54 0
221 -56 54 0
-221 56 54 0
-221 -56 -54 0
-222 217 0
-222 54 0
-222 53 -56 0
-222 -53 56 0
222 -217 53 56 -54 0
222 -217 -53 -56 -54 0
223 220 -51 0
223 -220 51 0
-223 220 51 0
-223 -220 -51 0
224 54 -52 0
224 -54 52 0
-224 54 52 0
-224 -54 -52 0
-225 220 0
-225 52 0
-225 51 -54 0
-225 -51 54 0
225 -220 51 54 -52 0
225 -220 -51 -54 -52 0
226 223 -49 0
226 -223 49 0
-226 223 49 0
-226 -223 -49 0
227 52 -50 0
227 -52 50 0
-227 52 50 0
-227 -52 -50 0
-228 223 0
-228 50 0
-228 49 -52 0
-228 -49 52 0
228 -223 49 52 -50 0
228 -223 -49 -52 -50 0
229 226 -47 0
229 -226 47 0
-229 226 47 0
-229 -226 -47 0
230 50 -48 0
230 -50 48 0
-230 50 48 0
-230 -50 -48 0
-231 226 0
-231 48 0
-231 47 -50 0
-231 -47 50 0
231 -226 47 50 -48 0
231 -226 -47 -50 -48 0
232 229 -45 0
232 -229 45 0
-232 229 45 0
-232 -229 -45 0
233 48 -46 0
233 -48 46 0
-233 48 46 0
-233 -48 -46 0
-234 229 0
-234 46 0
-234 45 -48 0
-234 -45 48 0
234 -229 45 48 -46 0
234 -229 -45 -48 -46 0
235 232 -43 0
235 -232 43 0
-235 232 43 0
-235 -232 -43 0
236 46 -44 0
236 -46 44 0
-236 46 44 0
-236 -46 -44 0
-237 232 0
-237 44 0
-237 43 -46 0
-237 -43 46 0
237 -232 43 46 -44 0
237 -232 -43 -46 -44 0
238 235 -41 0
238 -235 41 0
-238 235 41 0
-238 -235 -41 0
239 44 -42 0
239 -44 42 0
-239 44 42 0
-239 -44 -42 0
-240 235 0
-240 42 0
-240 41 -44 0
-240 -41 44 0
240 -235 41 44 -42 0
240 -235 -41 -44 -42 0
241 238 -39 0
241 -238 39 0
-241 238 39 0
-241 -238 -39 0
242 42 -40 0
242 -42 40 0
-242 42 40 0
-242 -42 -40 0
-243 238 0
-243 40 0
-243 39 -42 0
-243 -39 42 0
243 -238 39 42 -40 0
243 -238 -39 -42 -40 0
244 241 -37 0
244 -241 37 0
-244 241 37 0
-244 -241 -37 0
245 40 -38 0
245 -40 38 0
-245 40 38 0
-245 -40 -38 0
-246 241 0
-246 38 0
-246 37 -40 0
-246 -37 40 0
246 -241 37 40 -38 0
246 -241 -37 -40 -38 0
247 244 -35 0
247 -244 35 0
-247 244 35 0
-247 -244 -35 0
248 38 -36 0
248 -38 36 0
-248 38 36 0
-248 -38 -36 0
-249 244 0
-249 36 0
-249 35 -38 0
-249 -35 38 0
249 -244 35 38 -36 0
249 -244 -35 -38 -36 0
250 247 -33 0
250 -247 33 0
-250 247 33 0
-250 -247 -33 0
251 36 -34 0
251 -36 34 0
-251 36 34 0
-251 -36 -34 0
-252 247 0
-252 34 0
-252 33 -36 0
-252 -33 36 0
252 -247 33 36 -34 0
252 -247 -33 -36 -34 0
253 250 -31 0
253 -250 31 0
-253 250 31 0
-253 -250 -31 0
254 34 -32 0
254 -34 32 0
-254 34 32 0
-254 -34 -32 0
-255 250 0
-255 32 0
-255 31 -34 0
-255 -31 34 0
255 -250 31 34 -32 0
255 -250 -31 -34 -32 0
256 253 -29 0
256 -253 29 0
-256 253 29 0
-256 -253 -29 0
257 32 -30 0
257 -32 30 0
-257 32 30 0
-257 -32 -30 0
-258 253 0
-258 30 0
-258 29 -32 0
-258 -29 32 0
258 -253 29 32 -30 0
258 -253 -29 -32 -30 0
259 256 -27 0
259 -256 27 0
-259 256 27 0
-259 -256 -27 0
260 30 -28 0
260 -30 28 0
-260 30 28 0
-260 -30 -28 0
-261 256 0
-261 28 0
-261 27 -30 0
-261 -27 30 0
261 -256 27 30 -28 0
261 -256 -27 -30 -28 0
262 259 -25 0
262 -259 25 0
-262 259 25 0
-262 -259 -25 0
263 28 -26 0
263 -28 26 0
-263 28 26 0
-263 -28 -26 0
-264 259 0
-264 26 0
-264 25 -28 0
-264 -25 28 0
264 -259 25 28 -26 0
264 -259 -25 -28 -26 0
265 262 -23 0
265 -262 23 0
-265 262 23 0
-265 -262 -23 0
266 26 -24 0
266 -26 24 0
-266 26 24 0
-266 -26 -24 0
-267 262 0
-267 24 0
-267 23 -26 0
-267 -23 26 0
267 -262 23 26 -24 0
267 -262 -23 -26 -24 0
268 265 -21 0
268 -265 21 0
-268 265 21 0
-268 -265 -21 0
269 24 -22 0
269 -24 22 0
-269 24 22 0
-269 -24 -22 0
-270 265 0
-270 22 0
-270 21 -24 0
-270 -21 24 0
270 -265 21 24 -22 0
270 -265 -21 -24 -22 0
271 268 -19 0
271 -268 19 0
-271 268 19 0
-271 -268 -19 0
272 22 -20 0
272 -22 20 0
-272 22 20 0
-272 -22 -20 0
-273 268 0
-273 20 0
-273 19 -22 0
-273 -19 22 0
273 -268 19 22 -20 0
273 -268 -19 -22 -20 0
274 271 -17 0
274 -271 17 0
-274 271 17 0
-274 -271 -17 0
275 20 -18 0
275 -20 18 0
-275 20 18 0
-275 -20 -18 0
-276 271 0
-276 18 0
-276 17 -20 0
-276 -17 20 0
276 -271 17 20 -18 0
276 -271 -17 -20 -18 0
277 274 -15 0
277 -274 15 0
-277 274 15 0
-277 -274 -15 0
278 18 -16 0
278 -18 16 0
-278 18 16 0
-278 -18 -16 0
-279 274 0
-279 16 0
-279 15 -18 0
-279 -15 18 0
279 -274 15 18 -16 0
279 -274 -15 -18 -16 0
280 277 -13 0
280 -277 13 0
-280 277 13 0
-280 -277 -13 0
281 16 -14 0
281 -16 14 0
-281 16 14 0
-281 -16 -14 0
-282 277 0
-282 14 0
-282 13 -16 0
-282 -13 16 0
282 -277 13 16 -14 0
282 -277 -13 -16 -14 0
283 280 -11 0
283 -280 11 0
-283 280 11 0
-283 -280 -11 0
284 14 -12 0
284 -14 12 0
-284 14 12 0
-284 -14 -12 0
-285 280 0
-285 12 0
-285 11 -14 0
-285 -11 14 0
285 -280 11 14 -12 0
285 -280 -11 -14 -12 0
286 283 -9 0
286 -283 9 0
-286 283 9 0
-286 -283 -9 0
287 12 -10 0
287 -12 10 0
-287 12 10 0
-287 -12 -10 0
-288 283 0
-288 10 0
-288 9 -12 0
-288 -9 12 0
288 -283 9 12 -10 0
288 -283 -9 -12 -10 0
289 286 -7 0
289 -286 7 0
-289 286 7 0
-289 -286 -7 0
290 10 -8 0
290 -10 8 0
-290 10 8 0
-290 -10 -8 0
-291 286 0
-291 8 0
-291 7 -10 0
-291 -7 10 0
291 -286 7 10 -8 0
291 -286 -7 -10 -8 0
292 289 -5 0
292 -289 5 0
-292 289 5 0
-292 -289 -5 0
293 8 -6 0
293 -8 6 0
-293 8 6 0
-293 -8 -6 0
-294 289 0
-294 6 0
-294 5 -8 0
-294 -5 8 0
294 -289 5 8 -6 0
294 -289 -5 -8 -6 0
295 292 -3 0
295 -292 3 0
-295 292 3 0
-295 -292 -3 0
296 6 -4 0
296 -6 4 0
-296 6 4 0
-296 -6 -4 0
-297 292 0
-297 4 0
-297 3 -6 0
-297 -3 6 0
297 -292 3 6 -4 0
297 -292 -3 -6 -4 0
298 295 -1 0
298 -295 1 0
-298 295 1 0
-298 -295 -1 0
299 4 -2 0
299 -4 2 0
-299 4 2 0
-299 -4 -2 0
-300 295 0
-300 2 0
-300 1 -4 0
-300 -1 4 0
300 -295 1 4 -2 0
300 -295 -1 -4 -2 0
-298 0
-295 0
-299 0
-292 0
-296 0
-289 0
-293 0
-286 0
-290 0
-283 0
-287 0
-280 0
-284 0
-277 0
-281 0
-274 0
-278 0
-271 0
-275 0
-268 0
-272 0
-265 0
-269 0
-262 0
-266 0
-259 0
-263 0
-256 0
-260 0
-253 0
-257 0
-250 0
-254 0
-247 0
-251 0
-244 0
-248 0
-241 0
-245 0
-238 0
-242 0
-235 0
-239 0
-232 0
-236 0
-229 0
-233 0
-226 0
-230 0
-223 0
-227 0
-220 0
-224 0
-217 0
-221 0
-214 0
-218 0
-211 0
-215 0
-208 0
-212 0
-205 0
-209 0
-202 0
-206 0
-199 0
-203 0
-196 0
-200 0
-193 0
-197 0
-190 0
-194 0
-187 0
-191 0
-184 0
-188 0
-181 0
-185 0
-178 0
-182 0
-175 0
-179 0
-172 0
-176 0
-169 0
-173 0
-166 0
-170 0
-163 0
-167 0
-160 0
-164 0
-157 0
-161 0
-154 0
-158 0
-151 0
-155 0
-148 0
-152 0
-145 0
-149 0
-142 0
-146 0
-139 0
-143 0
-136 0
-140 0
-133 0
-137 0
-130 0
-134 0
-127 0
-131 0
-121 0
-128 0
